c NeuroCodeBench 2.0 CNF formula with verdict Sat
p cnf 10 13
4 5 9 2 7 -3 -8 0
4 -2 -10 -1 0
3 5 10 4 2 9 -1 0
1 7 10 -4 0
8 -5 -3 0
4 2 10 -9 -8 -5 -1 -6 0
5 8 9 10 7 -1 -2 -3 0
-10 -4 0
5 9 7 -10 -3 -4 0
3 -8 -2 -4 0
8 7 -6 -5 -10 -9 0
3 1 5 4 8 -6 -2 -7 -10 0
2 -9 -4 -6 0
